NAME : instances/clustered-mixed-tsp/instance-22.tsp
COMMENT : No Comment
TYPE : TSP
DIMENSION: 34
EDGE_WEIGHT_TYPE : EUC_2D
NODE_COORD_SECTION
1 1750 1076 
2 643 66 
3 651 1770 
4 1251 621 
5 1134 1766 
6 157 23 
7 1672 1533 
8 336 1818 
9 1105 442 
10 577 843 
11 1298 1482 
12 954 1185 
13 447 964 
14 1524 1406 
15 1358 987 
16 1384 1917 
17 1338 682 
18 994 418 
19 267 653 
20 1371 1981 
21 128 508 
22 386 518 
23 501 992 
24 1679 949 
25 953 1171 
26 456 350 
27 114 1437 
28 430 1793 
29 1810 1970 
30 1832 1945 
31 488 312 
32 482 243 
33 1433 1758 
34 1007 1684 
EOF
